Solver command line: ['C:\\Program Files\\IBM\\ILOG\\CPLEX_Studio2211\\cplex\\bin\\x64_win64\\cplex.exe']


Welcome to IBM(R) ILOG(R) CPLEX(R) Interactive Optimizer 22.1.1.0
  with Simplex, Mixed Integer & Barrier Optimizers
5725-A06 5725-A29 5724-Y48 5724-Y49 5724-Y54 5724-Y55 5655-Y21
Copyright IBM Corp. 1988, 2022.  All Rights Reserved.

Type 'help' for a list of available commands.
Type 'help' followed by a command name for more
information on commands.

CPLEX> Logfile 'cplex.log' closed.
Logfile 'C:\Users\wangy\Documents\GitHub\re_optimization\result_site_specific\tmpjkov67ac.cplex.log' open.
CPLEX> Problem 'C:\Users\wangy\Documents\GitHub\re_optimization\result_site_specific\tmpzs1ux9db.pyomo.lp' read.
Read time = 0.25 sec. (7.29 ticks)
CPLEX> Problem name         : C:\Users\wangy\Documents\GitHub\re_optimization\result_site_specific\tmpzs1ux9db.pyomo.lp
Objective sense      : Minimize
Variables            :   52617  [Nneg: 27764,  Free: 8786,  Binary: 7,
                                 Other: 16060]
Objective nonzeros   :      14
Linear constraints   :   73052  [Less: 39437,  Greater: 3,  Equal: 33612]
  Nonzeros           :  181272
  RHS nonzeros       :    3929

Variables            : Min LB: 0.000000         Max UB: 1.000000       
Objective nonzeros   : Min   : 1.000000         Max   : 1.000000       
Linear constraints   :
  Nonzeros           : Min   : 0.001318066      Max   : 100000.0       
  RHS nonzeros       : Min   : 0.009000000      Max   : 1000.000       
CPLEX> Version identifier: 22.1.1.0 | 2022-11-27 | 9160aff4d
Tried aggregator 3 times.
MIP Presolve eliminated 48227 rows and 29248 columns.
Aggregator did 7485 substitutions.
Reduced MIP has 17340 rows, 15884 columns, and 50360 nonzeros.
Reduced MIP has 5 binaries, 0 generals, 0 SOSs, and 0 indicators.
Presolve time = 0.14 sec. (152.02 ticks)
Found incumbent of value 182989.722370 after 0.17 sec. (176.67 ticks)
Probing time = 0.01 sec. (0.96 ticks)
Tried aggregator 1 time.
Detecting symmetries...
Reduced MIP has 17340 rows, 15884 columns, and 50360 nonzeros.
Reduced MIP has 5 binaries, 0 generals, 0 SOSs, and 0 indicators.
Presolve time = 0.03 sec. (29.68 ticks)
Probing time = 0.00 sec. (0.87 ticks)
MIP emphasis: balance optimality and feasibility.
MIP search method: dynamic search.
Parallel mode: deterministic, using up to 16 threads.
Root relaxation solution time = 0.80 sec. (475.25 ticks)

        Nodes                                         Cuts/
   Node  Left     Objective  IInf  Best Integer    Best Bound    ItCnt     Gap

*     0+    0                       182989.7224   -18299.6000           110.00%
*     0+    0                        10092.9152   -18299.6000           281.31%
      0     0    10084.4341     1    10092.9152    10084.4341       51    0.08%
*     0+    0                        10092.8939    10084.4341             0.08%
      0     0        cutoff          10092.8939                     79    0.00%
Elapsed time = 1.23 sec. (786.75 ticks, tree = 0.01 MB, solutions = 3)

Root node processing (before b&c):
  Real time             =    1.23 sec. (789.24 ticks)
Parallel b&c, 16 threads:
  Real time             =    0.00 sec. (0.00 ticks)
  Sync time (average)   =    0.00 sec.
  Wait time (average)   =    0.00 sec.
                          ------------
Total (root+branch&cut) =    1.23 sec. (789.24 ticks)

Solution pool: 3 solutions saved.

MIP - Integer optimal solution:  Objective =  1.0092893928e+04
Solution time =    1.23 sec.  Iterations = 79  Nodes = 0
Deterministic time = 789.39 ticks  (639.70 ticks/sec)

CPLEX> Incumbent solution written to file 'C:\Users\wangy\Documents\GitHub\re_optimization\result_site_specific\tmpb8rk97og.cplex.sol'.
CPLEX> 
